44 97 85 51 24 35 40 55 36 73 18 25 94 22 29 86 82 28 17 2 56 9 91 77 89 50 92 16 83 45 26 42 93 58 59 84 79 47 11 61 99 8 30 10 49 43 53 38 37 74 41 39 57 90 32 87 12 15 80 7 72 33 1 60 98 75 34 67 23 6 95 88 68 52 71 13 69 78 63 14 19 5 0 54 66 48 70 76 65 20 3 31 46 64 62 81 96 21 4 27 

